39250
19 14 7 9 5 -1 200 250 250 500 300 
14 7 20 12 13 15 10 5 2 4 3 11 -1 250 250 100 50 100 50 250 200 100 25 50 75 
2
1
1 -1 40 
17 -1 40 
11 1 17 -1 25 10 5 
17 12 -1 5 35 
13 -1 40 
13 -1 40 
13 15 -1 20 20 
2 -1 40 
2 -1 40 
2 12 15 -1 20 15 5 
15 3 -1 25 15 
3 8 -1 35 5 
8 16 -1 20 20 
16 18 6 -1 5 25 10 
2
17 -1 40 
17 6 -1 10 15 
